36	5	100
0	0	0
-14	30	1
72	6	14
54	46	15
78	72	11
18	12	18
56	42	2
14	-10	22
78	-12	7
40	28	18
8	-6	23
4	28	12
42	44	21
-10	76	2
50	24	14
54	-18	9
-12	6	10
4	72	4
6	62	19
52	72	2
26	4	20
4	56	15
0	60	11
64	28	6
4	46	13
12	30	19
14	-2	13
10	46	8
44	32	15
12	76	18
6	72	11
46	64	21
0	64	12
16	68	2
56	22	23
76	2	11
